
-4.3
-4.2
-4.1
-3.7
-3.0
-1.8
-1.2
-1.1
-1.0
-1.0
-1.0
-1.0
-0.9
-0.7
-0.7
-0.7
-0.7
-0.6
-0.6
-0.6
-0.6
-0.6
-0.6
-0.6
-0.6
-4.7
-4.4
-4.2
-3.6
-2.8
-1.6
-1.0
-1.0
-1.0
-1.0
-0.8
-0.7
-0.7
-0.7
-0.7
-0.6
-0.6
-0.5
-0.5
-0.5
-0.5
-0.5
-4.3
-4.2
-3.9
-3.6
-3.2
-1.9
-1.2
-1.0
-0.9
-0.9
-0.9
-0.9
-0.8
-0.8
-0.8
-0.8
-0.8
-0.8
-0.8
-0.8